Instance Name : r105
Date : 2022-07-18
Solution
Route 1 : 27 52 69 76 50 1
Route 2 : 33 65 71 66 20 32 70
Route 3 : 53 40 26
Route 4 : 62 88 7 18
Route 5 : 47 36 19 49 46 48
Route 6 : 2 15 57 87 97 13
Route 7 : 21 73 75 22 41 56 74 58
Route 8 : 83 45 82 8 84 17 60 89
Route 9 : 72 39 23 67 55 54 4 25
Route 10 : 42 14 44 38 86 43 100 91 93
Route 11 : 63 64 11 90 10
Route 12 : 59 5 61 16 85 37 96
Route 13 : 95 92 98 99 94 6
Route 14 : 28 12 29 79 78 34 35 77
Route 15 : 31 30 51 9 81 3 68 24 80
